(set-info :smt-lib-version 2.6)
(set-logic QF_SLIA)
(set-info :source |
Generated by: Wei-Cheng Wu
Generated on: 2019-07-28
Generator: Py-Conbyte
Application: Concolic execution of Python code
Target solver: CVC4, Z3, Z3str3, Z3-Trau
|)
(set-info :license "https://creativecommons.org/licenses/by/4.0/")
(set-info :category "industrial")
(set-info :status unknown)
(declare-fun version () String)


(assert ( str.in_re ( str.substr ( str.substr ( str.substr version ( + ( str.indexof version "MSC v." 0  ) ( str.len "MSC v."  )  ) ( - ( str.len version  ) ( + ( str.indexof version "MSC v." 0  ) ( str.len "MSC v."  )  )  )  ) 0 ( - ( str.indexof ( str.substr version ( + ( str.indexof version "MSC v." 0  ) ( str.len "MSC v."  )  ) ( - ( str.len version  ) ( + ( str.indexof version "MSC v." 0  ) ( str.len "MSC v."  )  )  )  ) " " 0  ) 0  )  ) 0 ( - ( + ( str.len ( str.substr ( str.substr version ( + ( str.indexof version "MSC v." 0  ) ( str.len "MSC v."  )  ) ( - ( str.len version  ) ( + ( str.indexof version "MSC v." 0  ) ( str.len "MSC v."  )  )  )  ) 0 ( - ( str.indexof ( str.substr version ( + ( str.indexof version "MSC v." 0  ) ( str.len "MSC v."  )  ) ( - ( str.len version  ) ( + ( str.indexof version "MSC v." 0  ) ( str.len "MSC v."  )  )  )  ) " " 0  ) 0  )  )  ) (- 2)  ) 0  )  ) ( re.+ ( re.range "0" "9"  )  )  ))

(assert (not ( = ( str.indexof version "MSC v." 0  ) (- 1)  )))
(assert (not ( str.in_re ( str.substr ( str.substr ( str.substr version ( + ( str.indexof version "MSC v." 0  ) ( str.len "MSC v."  )  ) ( - ( str.len version  ) ( + ( str.indexof version "MSC v." 0  ) ( str.len "MSC v."  )  )  )  ) 0 ( - ( str.indexof ( str.substr version ( + ( str.indexof version "MSC v." 0  ) ( str.len "MSC v."  )  ) ( - ( str.len version  ) ( + ( str.indexof version "MSC v." 0  ) ( str.len "MSC v."  )  )  )  ) " " 0  ) 0  )  ) 2 ( - 3 2  )  ) ( re.+ ( re.range "0" "9"  )  )  )))


(check-sat)

(exit)
